500
    1   415   415
    2   152   152
    3   464   464
    4   460   460
    5   874   874
    6   434   434
    7   895   895
    8   874   874
    9   748   748
   10   379   379
   11   437   437
   12   407   407
   13   429   429
   14   963   963
   15   543   543
   16   145   145
   17   861   861
   18   544   544
   19   878   878
   20    64    64
   21   355   355
   22     9     9
   23   383   383
   24    57    57
   25   716   716
   26   205   205
   27   184   184
   28   472   472
   29    28    28
   30   313   313
   31   128   128
   32   426   426
   33   725   725
   34   488   488
   35   940   940
   36   432   432
   37   889   889
   38   212   212
   39   530   530
   40    39    39
   41    53    53
   42   275   275
   43   723   723
   44   781   781
   45   876   876
   46   926   926
   47   754   754
   48   958   958
   49   940   940
   50   123   123
   51   116   116
   52   884   884
   53   658   658
   54   842   842
   55   755   755
   56   621   621
   57   253   253
   58   252   252
   59   395   395
   60   158   158
   61   993   993
   62   183   183
   63   663   663
   64   134   134
   65   667   667
   66   470   470
   67   313   313
   68   421   421
   69   548   548
   70   301   301
   71   413   413
   72   139   139
   73   724   724
   74   355   355
   75   648   648
   76   957   957
   77   700   700
   78   176   176
   79   434   434
   80   817   817
   81   223   223
   82   910   910
   83   157   157
   84   171   171
   85     6     6
   86   475   475
   87   145   145
   88    33    33
   89   935   935
   90   620   620
   91   294   294
   92   241   241
   93   913   913
   94   406   406
   95   629   629
   96    98    98
   97   495   495
   98   494   494
   99   652   652
  100   671   671
  101   110   110
  102   209   209
  103   596   596
  104   824   824
  105   757   757
  106   637   637
  107   424   424
  108   595   595
  109   488   488
  110   990   990
  111   339   339
  112   296   296
  113   713   713
  114   708   708
  115   654   654
  116   498   498
  117    52    52
  118   874   874
  119   606   606
  120   113   113
  121   916   916
  122   794   794
  123   678   678
  124   876   876
  125   775   775
  126   147   147
  127   974   974
  128    35    35
  129   275   275
  130   292   292
  131   384   384
  132   899   899
  133   796   796
  134   195   195
  135   594   594
  136   555   555
  137   716   716
  138   278   278
  139   829   829
  140   203   203
  141   517   517
  142   283   283
  143   513   513
  144   629   629
  145   454   454
  146   291   291
  147   459   459
  148    67    67
  149   655   655
  150   320   320
  151   652   652
  152   720   720
  153   482   482
  154   152   152
  155   383   383
  156   451   451
  157   840   840
  158   362   362
  159   238   238
  160   997   997
  161   533   533
  162   989   989
  163   849   849
  164   708   708
  165   834   834
  166   727   727
  167   797   797
  168    80    80
  169   693   693
  170   315   315
  171   997   997
  172   586   586
  173   351   351
  174   308   308
  175   376   376
  176   877   877
  177   946   946
  178   422   422
  179   671   671
  180   588   588
  181   444   444
  182    68    68
  183   648   648
  184   755   755
  185   260   260
  186   235   235
  187   387   387
  188   530   530
  189   272   272
  190   238   238
  191   537   537
  192   316   316
  193   945   945
  194   843   843
  195   420   420
  196   502   502
  197   460   460
  198   186   186
  199   144   144
  200   186   186
  201   509   509
  202   422   422
  203   764   764
  204   371   371
  205    82    82
  206   628   628
  207    12    12
  208   419   419
  209   417   417
  210   353   353
  211   590   590
  212   625   625
  213   407   407
  214   720   720
  215   598   598
  216   838   838
  217   798   798
  218   752   752
  219   753   753
  220   238   238
  221   378   378
  222   923   923
  223   139   139
  224   332   332
  225   705   705
  226   547   547
  227   973   973
  228    85    85
  229   381   381
  230   496   496
  231   622   622
  232   695   695
  233   847   847
  234   165   165
  235   877   877
  236   371   371
  237    17    17
  238   608   608
  239   128   128
  240   597   597
  241   903   903
  242    95    95
  243   340   340
  244   772   772
  245   283   283
  246   160   160
  247   202   202
  248   885   885
  249   653   653
  250    57    57
  251   970   970
  252   290   290
  253   747   747
  254   990   990
  255   215   215
  256   768   768
  257   842   842
  258   393   393
  259   239   239
  260   630   630
  261   193   193
  262   228   228
  263    37    37
  264   201   201
  265   614   614
  266   682   682
  267   716   716
  268   724   724
  269   432   432
  270    51    51
  271   938   938
  272   869   869
  273   665   665
  274   574   574
  275   806   806
  276   187   187
  277   101   101
  278   585   585
  279   448   448
  280   363   363
  281    75    75
  282   676   676
  283   444   444
  284   946   946
  285   231   231
  286    75    75
  287     3     3
  288     5     5
  289   537   537
  290   642   642
  291   958   958
  292   516   516
  293   446   446
  294   355   355
  295   647   647
  296   821   821
  297   312   312
  298   978   978
  299   926   926
  300   244   244
  301   477   477
  302   426   426
  303   412   412
  304   360   360
  305   521   521
  306   793   793
  307   944   944
  308   529   529
  309   753   753
  310   838   838
  311   692   692
  312    94    94
  313   622   622
  314   163   163
  315    91    91
  316   835   835
  317   585   585
  318   773   773
  319   729   729
  320   239   239
  321    49    49
  322   928   928
  323   982   982
  324   539   539
  325   878   878
  326   992   992
  327   673   673
  328   983   983
  329    33    33
  330   114   114
  331   206   206
  332   935   935
  333   770   770
  334   297   297
  335   979   979
  336   738   738
  337   229   229
  338   348   348
  339   645   645
  340   315   315
  341   362   362
  342   316   316
  343   105   105
  344   784   784
  345   304   304
  346   620   620
  347   417   417
  348   584   584
  349   902   902
  350   953   953
  351   950   950
  352   946   946
  353   822   822
  354   705   705
  355   477   477
  356   752   752
  357   790   790
  358   736   736
  359   727   727
  360   570   570
  361   635   635
  362   829   829
  363   256   256
  364   839   839
  365    60    60
  366   859   859
  367   668   668
  368   367   367
  369   424   424
  370   899   899
  371   329   329
  372   923   923
  373   102   102
  374   951   951
  375   781   781
  376   646   646
  377   775   775
  378   585   585
  379   613   613
  380   621   621
  381   346   346
  382   914   914
  383   654   654
  384   121   121
  385   844   844
  386   775   775
  387   348   348
  388   558   558
  389   937   937
  390   342   342
  391   405   405
  392   579   579
  393   219   219
  394   718   718
  395   993   993
  396   954   954
  397   502   502
  398   756   756
  399   561   561
  400   202   202
  401   494   494
  402   578   578
  403   552   552
  404   719   719
  405   798   798
  406   578   578
  407   146   146
  408   268   268
  409   590   590
  410    64    64
  411   816   816
  412   246   246
  413   384   384
  414   429   429
  415   773   773
  416   993   993
  417    71    71
  418   216   216
  419   793   793
  420   553   553
  421    76    76
  422   703   703
  423   159   159
  424   495   495
  425   110   110
  426   955   955
  427   972   972
  428   451   451
  429   349   349
  430   521   521
  431   943   943
  432   904   904
  433   836   836
  434   229   229
  435   175   175
  436   235   235
  437   585   585
  438    33    33
  439   518   518
  440   397   397
  441   505   505
  442   875   875
  443   216   216
  444   408   408
  445   621   621
  446   981   981
  447   519   519
  448   398   398
  449   683   683
  450   390   390
  451   535   535
  452   861   861
  453   811   811
  454   702   702
  455   625   625
  456   695   695
  457   967   967
  458   206   206
  459   270   270
  460   686   686
  461    37    37
  462   238   238
  463   754   754
  464   805   805
  465   276   276
  466   952   952
  467   250   250
  468   945   945
  469   633   633
  470   225   225
  471   187   187
  472    38    38
  473   669   669
  474   120   120
  475   865   865
  476   806   806
  477   532   532
  478   663   663
  479    16    16
  480   516   516
  481   181   181
  482   647   647
  483   235   235
  484   975   975
  485   145   145
  486   776   776
  487   991   991
  488   106   106
  489   354   354
  490   989   989
  491   866   866
  492   632   632
  493   665   665
  494   774   774
  495   493   493
  496   869   869
  497   236   236
  498   759   759
  499   932   932
  500   391   391
219115
